c Reduced graph for 4-FullIns_4 generated by Cyril Grelier
p edge 37 216
e 1 9
e 1 10
e 1 11
e 1 12
e 1 13
e 1 14
e 1 22
e 1 23
e 1 24
e 1 25
e 1 26
e 1 27
e 1 28
e 1 29
e 1 30
e 1 31
e 1 32
e 1 33
e 1 34
e 1 35
e 1 36
e 1 37
e 2 3
e 2 4
e 2 5
e 2 6
e 2 7
e 2 10
e 2 11
e 2 12
e 2 13
e 2 14
e 2 17
e 2 18
e 2 19
e 2 20
e 2 21
e 2 28
e 2 29
e 2 30
e 2 31
e 2 32
e 3 4
e 3 5
e 3 6
e 3 7
e 3 9
e 3 11
e 3 12
e 3 13
e 3 14
e 3 16
e 3 18
e 3 19
e 3 20
e 3 21
e 3 27
e 3 29
e 3 30
e 3 31
e 3 32
e 4 5
e 4 6
e 4 7
e 4 9
e 4 10
e 4 12
e 4 13
e 4 14
e 4 16
e 4 17
e 4 19
e 4 20
e 4 21
e 4 27
e 4 28
e 4 30
e 4 31
e 4 32
e 5 6
e 5 7
e 5 9
e 5 10
e 5 11
e 5 13
e 5 14
e 5 16
e 5 17
e 5 18
e 5 20
e 5 21
e 5 27
e 5 28
e 5 29
e 5 31
e 5 32
e 6 7
e 6 9
e 6 10
e 6 11
e 6 12
e 6 14
e 6 16
e 6 17
e 6 18
e 6 19
e 6 21
e 6 27
e 6 28
e 6 29
e 6 30
e 6 32
e 7 9
e 7 10
e 7 11
e 7 12
e 7 13
e 7 16
e 7 17
e 7 18
e 7 19
e 7 20
e 7 27
e 7 28
e 7 29
e 7 30
e 7 31
e 8 15
e 8 16
e 8 17
e 8 18
e 8 19
e 8 20
e 8 21
e 8 27
e 8 28
e 8 29
e 8 30
e 8 31
e 8 32
e 8 33
e 8 34
e 8 35
e 8 36
e 8 37
e 9 15
e 9 17
e 9 18
e 9 19
e 9 20
e 9 21
e 10 15
e 10 16
e 10 18
e 10 19
e 10 20
e 10 21
e 11 15
e 11 16
e 11 17
e 11 19
e 11 20
e 11 21
e 12 15
e 12 16
e 12 17
e 12 18
e 12 20
e 12 21
e 13 15
e 13 16
e 13 17
e 13 18
e 13 19
e 13 21
e 14 15
e 14 16
e 14 17
e 14 18
e 14 19
e 14 20
e 15 22
e 15 23
e 15 24
e 15 25
e 15 26
e 22 23
e 22 24
e 22 25
e 22 26
e 22 34
e 22 35
e 22 36
e 22 37
e 23 24
e 23 25
e 23 26
e 23 33
e 23 35
e 23 36
e 23 37
e 24 25
e 24 26
e 24 33
e 24 34
e 24 36
e 24 37
e 25 26
e 25 33
e 25 34
e 25 35
e 25 37
e 26 33
e 26 34
e 26 35
e 26 36
